
Gurobi 6.0.0 (linux64) logging started Mon Sep  7 15:45:56 2015


Gurobi 6.0.0 (linux64) logging started Mon Sep  7 15:59:15 2015


Gurobi 6.0.0 (linux64) logging started Mon Sep  7 15:59:22 2015


Gurobi 6.0.0 (linux64) logging started Mon Sep  7 16:00:26 2015


Gurobi 6.0.0 (linux64) logging started Mon Sep  7 16:01:08 2015


Gurobi 6.0.0 (linux64) logging started Mon Sep  7 16:01:34 2015


Gurobi 6.0.0 (linux64) logging started Mon Sep  7 16:01:55 2015


Gurobi 6.0.0 (linux64) logging started Mon Sep  7 16:02:31 2015


Gurobi 6.0.0 (linux64) logging started Mon Sep  7 16:02:57 2015


Gurobi 6.0.0 (linux64) logging started Mon Sep  7 16:04:06 2015


Gurobi 6.0.0 (linux64) logging started Mon Sep  7 16:05:40 2015


Gurobi 6.0.0 (linux64) logging started Mon Sep  7 16:16:37 2015


Gurobi 6.0.0 (linux64) logging started Mon Sep  7 16:18:13 2015


Gurobi 6.0.0 (linux64) logging started Mon Sep  7 16:19:01 2015


Gurobi 6.0.0 (linux64) logging started Mon Sep  7 16:21:33 2015


Gurobi 6.0.0 (linux64) logging started Mon Sep  7 16:57:47 2015


Gurobi 6.0.0 (linux64) logging started Mon Sep  7 17:00:56 2015


Gurobi 6.0.0 (linux64) logging started Mon Sep  7 17:07:24 2015


Gurobi 6.0.0 (linux64) logging started Mon Sep  7 17:19:56 2015


Gurobi 6.0.0 (linux64) logging started Mon Sep  7 17:22:35 2015


Gurobi 6.0.0 (linux64) logging started Mon Sep  7 18:38:20 2015


Gurobi 6.0.0 (linux64) logging started Mon Sep  7 18:43:10 2015


Gurobi 6.0.0 (linux64) logging started Mon Sep  7 18:46:35 2015


Gurobi 6.0.0 (linux64) logging started Mon Sep  7 18:48:11 2015


Gurobi 6.0.0 (linux64) logging started Mon Sep  7 18:48:25 2015


Gurobi 6.0.0 (linux64) logging started Mon Sep  7 18:49:41 2015


Gurobi 6.0.0 (linux64) logging started Mon Sep  7 19:09:20 2015


Gurobi 6.0.0 (linux64) logging started Mon Sep  7 19:10:16 2015


Gurobi 6.0.0 (linux64) logging started Mon Sep  7 19:15:20 2015


Gurobi 6.0.0 (linux64) logging started Mon Sep  7 19:15:54 2015


Gurobi 6.0.0 (linux64) logging started Mon Sep  7 19:46:33 2015


Gurobi 6.0.0 (linux64) logging started Mon Sep  7 19:47:15 2015


Gurobi 6.0.0 (linux64) logging started Mon Sep  7 19:48:46 2015


Gurobi 6.0.0 (linux64) logging started Mon Sep  7 19:53:13 2015


Gurobi 6.0.0 (linux64) logging started Mon Sep  7 19:57:21 2015


Gurobi 6.0.0 (linux64) logging started Mon Sep  7 19:58:46 2015


Gurobi 6.0.0 (linux64) logging started Mon Sep  7 20:04:07 2015


Gurobi 6.0.0 (linux64) logging started Mon Sep  7 20:09:09 2015


Gurobi 6.0.0 (linux64) logging started Mon Sep  7 20:11:49 2015

